0 2175
1 2080
2 1848
3 1848
4 1835
5 1757
6 1713
7 1713
8 1704
9 1646
10 1644
11 1598
12 1598
13 1598
14 1598
15 1567
16 1567
17 1525
18 1503
19 1441
20 1394
21 1394
22 1394
23 1394
24 1394
25 1394
26 1394
27 1394
28 1394
29 1378
30 1378
31 1347
32 1347
33 1347
34 1347
35 1321
36 1304
37 1304
38 1304
39 1282
40 1282
41 1275
42 1275
43 1275
44 1242
45 1242
46 1242
47 1242
48 1242
49 1224
50 1224
51 1216
52 1216
53 1216
54 1216
55 1189
56 1189
57 1177
58 1177
59 1177
60 1177
61 1177
62 1159
63 1159
64 1139
65 1110
66 1094
67 1094
68 1094
69 1094
70 1094
71 1080
72 1080
73 1080
74 1080
75 1078
76 1078
77 1078
78 1067
79 1067
80 1062
81 1062
82 1062
83 1062
84 1062
85 1054
86 1054
87 1054
88 1054
89 1054
90 1041
91 1041
92 1041
93 1041
94 1032
95 1032
96 1032
97 1032
98 1032
99 1032
100 1032
101 1032
102 1032
103 1032
104 1032
105 1032
106 1017
107 1017
108 1017
109 1017
110 1017
111 1017
112 1013
113 1013
114 1013
115 1013
116 1013
117 1013
118 1013
119 1013
120 1013
121 991
122 991
123 991
124 991
125 991
126 991
127 991
128 991
129 991
130 991
131 991
132 991
133 991
134 991
135 991
136 991
137 991
138 991
139 991
140 991
141 991
142 991
143 991
144 991
145 991
146 991
147 991
148 991
149 984
150 978
151 978
152 978
153 978
154 978
155 978
156 978
157 978
158 978
159 976
160 976
161 976
162 969
163 969
164 969
165 969
166 969
167 969
168 969
169 952
170 952
171 952
172 952
173 952
174 952
175 952
176 952
177 952
178 952
179 952
180 949
181 949
182 949
183 946
184 946
185 943
186 943
187 943
188 943
189 943
190 943
191 932
192 928
193 920
194 920
195 920
196 920
197 920
198 920
199 920
200 920
201 920
202 920
203 920
204 920
205 920
206 920
207 920
208 920
209 920
210 920
211 920
212 919
213 919
214 919
215 919
216 919
217 919
218 919
219 919
220 919
221 919
222 919
223 919
224 916
225 916
226 912
227 912
228 912
229 912
230 912
231 912
232 909
233 909
234 909
235 909
236 909
237 909
238 909
239 909
240 904
241 904
242 904
243 898
244 898
245 898
246 898
247 898
248 898
249 898
250 898
251 898
252 898
253 898
254 898
255 898
256 898
257 898
258 898
259 898
260 898
261 898
262 894
263 894
264 894
265 894
266 894
267 894
268 894
269 894
270 894
271 894
272 894
273 894
274 894
275 894
276 894
277 894
278 894
279 894
280 888
281 888
282 888
283 888
284 888
285 888
286 888
287 888
288 888
289 888
290 888
291 888
292 888
293 888
294 888
295 888
296 888
297 888
298 880
299 880
300 880
301 880
302 880
303 880
304 880
305 880
306 880
307 880
308 880
309 871
310 871
311 871
312 871
313 871
314 871
315 871
316 871
317 871
318 871
319 871
320 871
321 870
322 870
323 870
324 870
325 870
326 870
327 870
328 870
329 870
330 870
331 869
332 869
333 869
334 869
335 869
336 869
337 869
338 869
339 869
340 869
341 869
342 869
343 869
344 869
345 867
346 867
347 867
348 864
349 864
350 864
351 864
352 864
353 864
354 864
355 864
356 864
357 864
358 864
359 864
360 864
361 864
362 864
363 864
364 864
365 864
366 864
367 864
368 864
369 864
370 864
371 864
372 864
373 864
374 864
375 863
376 863
377 863
378 863
379 863
380 863
381 863
382 863
383 863
384 863
385 863
386 863
387 863
388 863
389 863
390 863
391 862
392 862
393 862
394 862
395 862
396 862
397 861
398 861
399 861
400 861
401 861
402 861
403 861
404 861
405 861
406 861
407 861
408 861
409 861
410 861
411 861
412 861
413 861
414 861
415 861
416 861
417 861
418 861
419 861
420 861
421 857
422 857
423 857
424 857
425 857
426 857
427 857
428 857
429 857
430 857
431 857
432 854
433 854
434 854
435 854
436 854
437 854
438 854
439 854
440 854
441 854
442 854
443 854
444 854
445 854
446 854
447 854
448 854
449 854
450 854
451 854
452 854
453 854
454 854
455 854
456 854
457 854
458 854
459 854
460 854
461 854
462 854
463 854
464 854
465 854
466 854
467 854
468 854
469 854
470 854
471 854
472 854
473 854
474 854
475 854
476 854
477 854
478 854
479 854
480 854
481 854
482 854
483 854
484 854
485 854
486 854
487 854
488 854
489 854
490 854
491 854
492 854
493 854
494 854
495 854
496 854
497 854
498 854
499 854
500 854
501 854
502 854
503 854
504 854
505 854
506 854
507 854
508 854
509 854
510 854
511 854
512 854
513 854
514 854
515 854
516 854
517 854
518 854
519 854
520 854
521 854
522 854
523 854
524 854
525 854
526 854
527 854
528 854
529 854
530 854
531 854
532 854
533 854
534 854
535 854
536 854
537 854
538 854
539 854
540 854
541 854
542 854
543 854
544 854
545 854
546 854
547 854
548 854
549 854
550 854
551 854
552 854
553 854
554 854
555 854
556 854
557 854
558 854
559 854
560 854
561 854
562 854
563 854
564 854
565 854
566 854
567 854
568 854
569 854
570 854
571 854
572 854
573 854
574 854
575 854
576 854
577 854
578 854
579 854
580 854
581 854
582 854
583 854
584 854
585 854
586 854
587 854
588 854
589 854
590 854
591 854
592 854
593 854
594 854
595 854
596 854
597 854
598 854
599 854
600 854
601 854
602 854
603 854
604 854
605 854
606 854
607 854
608 854
609 854
610 854
611 854
612 854
613 854
614 854
615 854
616 854
617 854
618 854
619 854
620 854
621 854
622 854
623 854
624 854
625 854
626 854
627 854
628 854
629 854
630 854
631 854
632 854
633 854
634 854
635 854
636 854
637 854
638 854
639 854
640 854
641 854
642 854
643 854
644 854
645 854
646 854
647 854
648 854
649 854
650 854
651 854
652 854
653 854
654 854
655 854
656 854
657 854
658 854
659 854
660 854
661 854
662 854
663 854
664 854
665 854
666 854
667 854
668 854
669 854
670 854
671 854
672 854
673 854
674 854
675 854
676 854
677 854
678 854
679 854
680 854
681 854
682 854
683 854
684 854
685 854
686 854
687 854
688 854
689 854
690 854
691 854
692 854
693 854
694 854
695 854
696 854
697 854
698 854
699 854
700 854
701 854
702 854
703 854
704 854
705 854
706 854
707 854
708 854
709 854
710 854
711 854
712 854
713 854
714 854
715 854
716 854
717 854
718 854
719 854
720 854
721 854
722 854
723 854
724 854
725 854
726 854
727 854
728 854
729 854
730 854
731 854
732 854
733 854
734 854
735 854
736 854
737 854
738 854
739 854
740 854
741 854
742 854
743 854
744 854
745 854
746 854
747 854
748 854
749 854
750 854
751 854
752 854
753 854
754 854
755 854
756 854
757 854
758 854
759 854
760 854
761 854
762 854
763 854
764 854
765 854
766 854
767 854
768 854
769 854
770 854
771 854
772 854
773 854
774 854
775 854
776 854
777 854
778 854
779 854
780 854
781 854
782 854
783 854
784 854
785 854
786 854
787 854
788 854
789 854
790 854
791 854
792 854
793 854
794 854
795 854
796 854
797 854
798 854
799 854
800 854
801 854
802 854
803 854
804 854
805 854
806 854
807 854
808 854
809 854
810 854
811 854
812 854
813 854
814 854
815 854
816 854
817 854
818 854
819 854
820 854
821 854
822 854
823 854
824 854
825 854
826 854
827 854
828 854
829 854
830 854
831 854
832 854
833 854
834 854
835 854
836 854
837 854
838 854
839 854
840 854
841 854
842 854
843 854
844 854
845 854
846 854
847 854
848 854
849 854
850 854
851 854
852 854
853 854
854 854
855 854
856 854
857 854
858 854
859 854
860 854
861 854
862 854
863 854
864 854
865 854
866 854
867 854
868 854
869 854
870 854
871 854
872 854
873 854
874 854
875 854
876 854
877 854
878 854
879 854
880 854
881 854
882 854
883 854
884 854
885 854
886 854
887 854
888 854
889 854
890 854
891 854
892 854
893 854
894 854
895 854
896 854
897 854
898 854
899 854
900 854
901 854
902 854
903 854
904 854
905 854
906 854
907 854
908 854
909 854
910 854
911 854
912 854
913 854
914 854
915 854
916 854
917 854
918 854
919 854
920 854
921 854
922 854
923 854
924 854
925 854
926 854
927 854
928 854
929 854
930 854
931 854
932 854
933 854
934 854
935 854
936 854
937 854
938 854
939 854
940 854
941 854
942 854
943 854
944 854
945 854
946 854
947 854
948 854
949 854
950 854
951 854
952 854
953 854
954 854
955 854
956 854
957 854
958 854
959 854
960 854
961 854
962 854
963 854
964 854
965 854
966 854
967 854
968 854
969 854
970 854
971 854
972 854
973 854
974 854
975 854
976 854
977 854
978 854
979 854
980 854
981 854
982 854
983 854
984 854
985 854
986 854
987 854
988 854
989 854
990 854
991 854
992 854
993 854
994 854
995 854
996 854
997 854
998 854
999 854
Best: [[7,4,3,24,29,5,12,9,19],
       [31,17,2,13],
       [25,15,10,23,28],
       [27,8,14,18,20,32,22],
       [21,6,26,11,16,30]], fitness: 854
